(set-logic ALL)
(declare-fun var0 () String)
(assert (str.in_re var0 (re.++ (re.* (re.+ (str.to_re "0"))) (re.++ (re.+ (re.* (str.to_re "1"))) (re.++ (re.union (re.+ (str.to_re "222")) (re.+ (str.to_re "33"))) (re.++ (re.+ (re.union (str.to_re "4") (str.to_re "55"))) (re.++ (re.union (re.* (str.to_re "6")) (re.* (str.to_re "777"))) (re.++ (re.+ (re.union (str.to_re "888") (str.to_re "99"))) (re.++ (re.union (re.* (str.to_re "aa")) (re.* (str.to_re "b"))) (re.++ (re.+ (re.* (str.to_re "cc"))) (re.++ (re.union (re.* (str.to_re "dd")) (re.* (str.to_re "e"))) (re.* (re.union (str.to_re "ff") (str.to_re "g"))))))))))))))
(assert (<= 51 (str.len var0)))
(check-sat)